unknown
(model
; cardinality of BoundSet is 2
(declare-sort BoundSet 0)
; rep: @uc_BoundSet_0
; rep: @uc_BoundSet_1
; cardinality of UnboundSet is 1
(declare-sort UnboundSet 0)
(declare-fun groundTerm_3 () UnboundSet)
(define-fun IsSings ((BOUND_VARIABLE_469 BoundSet)) Bool true)
(define-fun IsTo ((BOUND_VARIABLE_469 BoundSet)) Bool true)
(define-fun IsFilledWith ((BOUND_VARIABLE_469 BoundSet)) Bool false)
(define-fun IsSong ((BOUND_VARIABLE_469 BoundSet)) Bool false)
)
unsat
(error "Cannot get model unless immediately preceded by SAT/NOT_ENTAILED or UNKNOWN response.")
